experiment/data/lkh-res/Vrp-Set-Golden-n253/Vrp-Set-Golden-n253-lkh/0.lkh1.tour
NAME : 0.87225.tour
COMMENT : Length = 87225
COMMENT : Found by LKH-3 [Keld Helsgaun] Tue Apr  9 01:57:38 2024
TYPE : TOUR
DIMENSION : 278
TOUR_SECTION
1
41
71
109
110
156
210
209
155
108
70
40
255
8
24
23
7
254
11
30
29
10
278
42
72
111
157
211
212
158
112
74
73
43
263
6
20
21
45
22
272
92
135
136
186
187
188
189
190
191
139
95
60
261
9
27
53
54
28
266
36
64
100
101
145
144
143
142
61
33
269
96
140
192
252
251
250
249
248
247
246
245
244
243
185
134
259
4
18
19
5
256
115
114
160
161
217
216
215
214
213
159
113
75
44
275
31
58
93
137
138
94
59
32
270
123
124
125
175
174
230
231
232
233
234
235
236
178
87
267
48
81
82
83
51
50
49
25
273
56
90
132
182
181
180
238
237
179
129
130
88
277
67
104
150
204
203
202
201
200
148
149
103
66
37
271
14
34
62
98
99
63
35
15
268
52
86
128
127
177
176
126
84
85
26
274
47
79
119
167
168
224
223
222
166
118
46
257
80
120
121
169
225
226
227
228
229
173
172
171
170
122
260
65
102
146
147
199
198
197
196
195
194
253
193
141
97
265
68
106
105
151
205
206
152
207
208
154
153
107
69
262
3
16
38
39
17
276
57
91
133
183
184
242
241
240
239
131
89
55
258
2
13
12
264
77
76
116
164
163
162
218
219
220
221
165
117
78
-1
EOF
